c "48984.clq"
p edge 201 2960
e 1 17
e 1 18
e 1 19
e 1 21
e 1 23
e 1 28
e 1 36
e 1 42
e 1 52
e 1 55
e 1 57
e 1 61
e 1 73
e 1 77
e 1 83
e 1 94
e 1 103
e 1 107
e 1 114
e 1 138
e 1 141
e 1 149
e 1 155
e 1 188
e 1 189
e 1 194
e 1 198
e 1 201
e 2 17
e 2 18
e 2 19
e 2 20
e 2 21
e 2 22
e 2 24
e 2 25
e 2 27
e 2 28
e 2 29
e 2 30
e 2 32
e 2 33
e 2 34
e 2 37
e 2 38
e 2 50
e 2 51
e 2 52
e 2 53
e 2 57
e 2 60
e 2 61
e 2 65
e 2 67
e 2 73
e 2 77
e 2 81
e 2 83
e 2 88
e 2 95
e 2 96
e 2 107
e 2 110
e 2 112
e 2 118
e 2 129
e 2 135
e 2 140
e 2 141
e 2 148
e 2 152
e 2 160
e 2 172
e 2 173
e 2 182
e 2 189
e 2 195
e 3 17
e 3 18
e 3 20
e 3 22
e 3 23
e 3 26
e 3 27
e 3 28
e 3 29
e 3 30
e 3 31
e 3 32
e 3 33
e 3 34
e 3 37
e 3 39
e 3 40
e 3 41
e 3 42
e 3 44
e 3 45
e 3 47
e 3 48
e 3 51
e 3 53
e 3 54
e 3 55
e 3 56
e 3 58
e 3 65
e 3 68
e 3 78
e 3 81
e 3 82
e 3 91
e 3 95
e 3 96
e 3 97
e 3 98
e 3 107
e 3 109
e 3 111
e 3 121
e 3 136
e 3 142
e 3 148
e 3 156
e 3 159
e 3 161
e 3 166
e 3 174
e 3 179
e 3 180
e 3 181
e 3 183
e 3 197
e 3 199
e 4 17
e 4 18
e 4 19
e 4 20
e 4 21
e 4 22
e 4 23
e 4 24
e 4 25
e 4 26
e 4 27
e 4 28
e 4 30
e 4 31
e 4 32
e 4 33
e 4 36
e 4 38
e 4 39
e 4 40
e 4 41
e 4 45
e 4 46
e 4 49
e 4 52
e 4 53
e 4 56
e 4 59
e 4 63
e 4 71
e 4 72
e 4 83
e 4 88
e 4 91
e 4 96
e 4 100
e 4 104
e 4 106
e 4 109
e 4 110
e 4 112
e 4 115
e 4 117
e 4 119
e 4 123
e 4 127
e 4 128
e 4 130
e 4 131
e 4 141
e 4 148
e 4 156
e 4 169
e 4 170
e 4 186
e 4 187
e 4 192
e 5 17
e 5 18
e 5 20
e 5 21
e 5 22
e 5 43
e 5 44
e 5 46
e 5 53
e 5 62
e 5 79
e 5 84
e 5 106
e 5 146
e 5 153
e 5 154
e 5 156
e 6 17
e 6 18
e 6 19
e 6 21
e 6 24
e 6 25
e 6 26
e 6 28
e 6 33
e 6 56
e 6 77
e 6 97
e 6 117
e 6 118
e 6 126
e 6 142
e 6 188
e 7 17
e 7 18
e 7 19
e 7 20
e 7 21
e 7 22
e 7 23
e 7 30
e 7 35
e 7 42
e 7 51
e 7 52
e 7 56
e 7 63
e 7 71
e 7 74
e 7 78
e 7 80
e 7 86
e 7 87
e 7 89
e 7 109
e 7 113
e 7 134
e 7 155
e 7 196
e 8 17
e 8 18
e 8 19
e 8 20
e 8 22
e 8 23
e 8 25
e 8 26
e 8 27
e 8 29
e 8 33
e 8 35
e 8 39
e 8 40
e 8 43
e 8 54
e 8 56
e 8 60
e 8 64
e 8 65
e 8 67
e 8 68
e 8 72
e 8 86
e 8 89
e 8 93
e 8 99
e 8 113
e 8 114
e 8 118
e 8 119
e 8 121
e 8 123
e 8 126
e 8 136
e 8 140
e 8 141
e 8 156
e 8 159
e 8 183
e 8 194
e 8 195
e 8 197
e 8 200
e 9 17
e 9 18
e 9 19
e 9 20
e 9 21
e 9 22
e 9 23
e 9 25
e 9 26
e 9 31
e 9 39
e 9 41
e 9 42
e 9 43
e 9 46
e 9 47
e 9 50
e 9 57
e 9 61
e 9 62
e 9 64
e 9 67
e 9 71
e 9 75
e 9 77
e 9 84
e 9 85
e 9 86
e 9 90
e 9 93
e 9 95
e 9 118
e 9 119
e 9 126
e 9 130
e 9 131
e 9 134
e 9 136
e 9 141
e 9 156
e 9 161
e 9 163
e 9 168
e 9 171
e 9 174
e 9 178
e 10 17
e 10 18
e 10 19
e 10 20
e 10 21
e 10 23
e 10 24
e 10 25
e 10 26
e 10 34
e 10 35
e 10 37
e 10 38
e 10 42
e 10 44
e 10 48
e 10 49
e 10 52
e 10 53
e 10 56
e 10 62
e 10 68
e 10 70
e 10 72
e 10 73
e 10 75
e 10 78
e 10 79
e 10 84
e 10 89
e 10 92
e 10 94
e 10 96
e 10 98
e 10 100
e 10 102
e 10 114
e 10 116
e 10 143
e 10 145
e 10 146
e 10 155
e 10 161
e 10 165
e 10 174
e 10 181
e 10 188
e 11 17
e 11 18
e 11 19
e 11 20
e 11 21
e 11 24
e 11 27
e 11 28
e 11 30
e 11 34
e 11 44
e 11 47
e 11 49
e 11 51
e 11 56
e 11 58
e 11 93
e 11 102
e 11 103
e 11 139
e 11 168
e 11 170
e 12 17
e 12 18
e 12 19
e 12 20
e 12 21
e 12 22
e 12 23
e 12 24
e 12 26
e 12 27
e 12 29
e 12 31
e 12 38
e 12 39
e 12 44
e 12 45
e 12 49
e 12 50
e 12 51
e 12 54
e 12 57
e 12 67
e 12 70
e 12 71
e 12 77
e 12 88
e 12 92
e 12 93
e 12 98
e 12 110
e 12 112
e 12 119
e 12 124
e 12 135
e 12 143
e 12 167
e 12 175
e 12 177
e 12 179
e 12 181
e 12 183
e 13 17
e 13 18
e 13 19
e 13 21
e 13 22
e 13 23
e 13 24
e 13 25
e 13 26
e 13 27
e 13 28
e 13 29
e 13 31
e 13 32
e 13 34
e 13 40
e 13 44
e 13 45
e 13 46
e 13 47
e 13 50
e 13 56
e 13 64
e 13 69
e 13 84
e 13 94
e 13 98
e 13 108
e 13 114
e 13 116
e 13 125
e 13 138
e 13 146
e 13 148
e 13 152
e 13 182
e 13 186
e 13 192
e 13 201
e 14 17
e 14 18
e 14 19
e 14 20
e 14 21
e 14 22
e 14 23
e 14 25
e 14 26
e 14 27
e 14 28
e 14 29
e 14 30
e 14 32
e 14 36
e 14 37
e 14 38
e 14 39
e 14 44
e 14 47
e 14 52
e 14 54
e 14 55
e 14 58
e 14 59
e 14 60
e 14 63
e 14 66
e 14 73
e 14 76
e 14 78
e 14 80
e 14 81
e 14 83
e 14 84
e 14 85
e 14 89
e 14 92
e 14 96
e 14 103
e 14 108
e 14 127
e 14 129
e 14 133
e 14 137
e 14 142
e 14 149
e 14 151
e 14 155
e 14 156
e 14 157
e 14 158
e 14 168
e 14 176
e 14 178
e 14 179
e 14 182
e 15 17
e 15 18
e 15 19
e 15 20
e 15 22
e 15 24
e 15 28
e 15 29
e 15 30
e 15 36
e 15 37
e 15 45
e 15 48
e 15 58
e 15 62
e 15 64
e 15 69
e 15 97
e 15 99
e 15 101
e 15 103
e 15 107
e 15 110
e 15 115
e 15 118
e 15 125
e 15 135
e 15 140
e 15 161
e 15 162
e 15 168
e 16 17
e 16 19
e 16 20
e 16 24
e 16 25
e 16 29
e 16 34
e 16 35
e 16 38
e 16 47
e 16 65
e 16 73
e 16 76
e 16 83
e 16 85
e 16 95
e 16 98
e 16 143
e 16 148
e 16 159
e 16 160
e 16 165
e 16 179
e 17 18
e 17 19
e 17 20
e 17 21
e 17 22
e 17 23
e 17 24
e 17 25
e 17 27
e 17 28
e 17 30
e 17 31
e 17 32
e 17 34
e 17 35
e 17 36
e 17 37
e 17 39
e 17 41
e 17 42
e 17 47
e 17 48
e 17 51
e 17 53
e 17 54
e 17 55
e 17 58
e 17 59
e 17 60
e 17 61
e 17 65
e 17 69
e 17 72
e 17 73
e 17 74
e 17 75
e 17 76
e 17 77
e 17 79
e 17 83
e 17 84
e 17 85
e 17 88
e 17 89
e 17 93
e 17 97
e 17 99
e 17 101
e 17 102
e 17 106
e 17 107
e 17 111
e 17 112
e 17 113
e 17 117
e 17 124
e 17 125
e 17 127
e 17 128
e 17 137
e 17 139
e 17 141
e 17 149
e 17 155
e 17 156
e 17 157
e 17 158
e 17 159
e 17 161
e 17 164
e 17 170
e 17 171
e 17 174
e 17 176
e 17 177
e 17 185
e 17 187
e 17 188
e 18 19
e 18 20
e 18 21
e 18 22
e 18 23
e 18 24
e 18 25
e 18 26
e 18 27
e 18 30
e 18 31
e 18 32
e 18 33
e 18 34
e 18 35
e 18 37
e 18 38
e 18 39
e 18 41
e 18 43
e 18 46
e 18 47
e 18 48
e 18 52
e 18 54
e 18 56
e 18 57
e 18 59
e 18 60
e 18 62
e 18 63
e 18 65
e 18 66
e 18 67
e 18 72
e 18 73
e 18 75
e 18 76
e 18 82
e 18 83
e 18 84
e 18 85
e 18 87
e 18 101
e 18 125
e 18 131
e 18 134
e 18 136
e 18 142
e 18 144
e 18 150
e 18 154
e 18 155
e 18 156
e 18 158
e 18 160
e 18 169
e 18 179
e 18 184
e 18 186
e 18 187
e 18 188
e 18 189
e 18 198
e 19 20
e 19 21
e 19 22
e 19 23
e 19 24
e 19 25
e 19 26
e 19 27
e 19 28
e 19 29
e 19 30
e 19 31
e 19 32
e 19 33
e 19 34
e 19 35
e 19 36
e 19 38
e 19 39
e 19 59
e 19 61
e 19 64
e 19 69
e 19 70
e 19 75
e 19 76
e 19 77
e 19 78
e 19 79
e 19 83
e 19 89
e 19 90
e 19 92
e 19 94
e 19 95
e 19 99
e 19 107
e 19 118
e 19 120
e 19 121
e 19 122
e 19 123
e 19 130
e 19 131
e 19 137
e 19 138
e 19 145
e 19 147
e 19 152
e 19 184
e 19 187
e 19 188
e 19 198
e 20 21
e 20 22
e 20 23
e 20 24
e 20 25
e 20 26
e 20 28
e 20 29
e 20 30
e 20 31
e 20 32
e 20 33
e 20 37
e 20 38
e 20 40
e 20 42
e 20 43
e 20 44
e 20 48
e 20 49
e 20 50
e 20 53
e 20 55
e 20 58
e 20 59
e 20 60
e 20 62
e 20 63
e 20 65
e 20 68
e 20 69
e 20 70
e 20 72
e 20 74
e 20 77
e 20 92
e 20 93
e 20 94
e 20 96
e 20 106
e 20 109
e 20 111
e 20 122
e 20 124
e 20 133
e 20 136
e 20 139
e 20 141
e 20 143
e 20 151
e 20 152
e 20 160
e 20 179
e 20 185
e 20 186
e 20 193
e 20 199
e 21 22
e 21 23
e 21 24
e 21 28
e 21 29
e 21 31
e 21 35
e 21 37
e 21 38
e 21 39
e 21 41
e 21 42
e 21 44
e 21 46
e 21 55
e 21 59
e 21 61
e 21 62
e 21 65
e 21 67
e 21 69
e 21 74
e 21 76
e 21 83
e 21 89
e 21 90
e 21 98
e 21 99
e 21 100
e 21 101
e 21 106
e 21 108
e 21 110
e 21 113
e 21 114
e 21 120
e 21 124
e 21 126
e 21 130
e 21 131
e 21 133
e 21 136
e 21 140
e 21 145
e 21 150
e 21 152
e 21 156
e 21 157
e 21 161
e 21 163
e 21 170
e 21 176
e 21 177
e 21 187
e 21 193
e 21 195
e 21 200
e 21 201
e 22 23
e 22 24
e 22 25
e 22 26
e 22 27
e 22 28
e 22 29
e 22 30
e 22 31
e 22 32
e 22 33
e 22 36
e 22 37
e 22 39
e 22 40
e 22 41
e 22 45
e 22 46
e 22 50
e 22 52
e 22 53
e 22 55
e 22 70
e 22 71
e 22 72
e 22 74
e 22 75
e 22 76
e 22 78
e 22 82
e 22 83
e 22 88
e 22 91
e 22 92
e 22 100
e 22 102
e 22 103
e 22 105
e 22 116
e 22 117
e 22 121
e 22 126
e 22 132
e 22 135
e 22 136
e 22 140
e 22 141
e 22 147
e 22 151
e 22 156
e 22 157
e 22 158
e 22 160
e 22 164
e 22 166
e 22 168
e 22 173
e 22 175
e 22 176
e 22 177
e 22 183
e 22 186
e 22 194
e 22 197
e 22 198
e 23 24
e 23 25
e 23 26
e 23 27
e 23 30
e 23 32
e 23 34
e 23 35
e 23 36
e 23 38
e 23 39
e 23 43
e 23 48
e 23 50
e 23 53
e 23 54
e 23 61
e 23 63
e 23 64
e 23 66
e 23 74
e 23 76
e 23 79
e 23 89
e 23 90
e 23 95
e 23 96
e 23 103
e 23 107
e 23 108
e 23 117
e 23 118
e 23 125
e 23 126
e 23 128
e 23 147
e 23 148
e 23 150
e 23 158
e 23 160
e 23 175
e 23 183
e 23 185
e 23 192
e 23 195
e 24 25
e 24 26
e 24 27
e 24 31
e 24 32
e 24 34
e 24 35
e 24 36
e 24 37
e 24 40
e 24 41
e 24 42
e 24 44
e 24 50
e 24 51
e 24 52
e 24 57
e 24 62
e 24 63
e 24 64
e 24 65
e 24 71
e 24 74
e 24 75
e 24 77
e 24 78
e 24 80
e 24 81
e 24 83
e 24 85
e 24 90
e 24 91
e 24 93
e 24 95
e 24 98
e 24 100
e 24 108
e 24 111
e 24 113
e 24 115
e 24 118
e 24 124
e 24 127
e 24 132
e 24 133
e 24 140
e 24 142
e 24 145
e 24 147
e 24 149
e 24 152
e 24 154
e 24 160
e 24 162
e 24 163
e 24 164
e 24 166
e 24 167
e 24 170
e 24 172
e 24 193
e 24 197
e 24 199
e 24 200
e 25 26
e 25 27
e 25 29
e 25 30
e 25 31
e 25 33
e 25 34
e 25 35
e 25 36
e 25 39
e 25 40
e 25 41
e 25 43
e 25 44
e 25 48
e 25 49
e 25 55
e 25 57
e 25 60
e 25 61
e 25 63
e 25 69
e 25 70
e 25 72
e 25 73
e 25 75
e 25 82
e 25 84
e 25 87
e 25 88
e 25 89
e 25 96
e 25 105
e 25 106
e 25 108
e 25 111
e 25 115
e 25 116
e 25 120
e 25 122
e 25 125
e 25 128
e 25 133
e 25 146
e 25 150
e 25 151
e 25 153
e 25 154
e 25 159
e 25 160
e 25 162
e 25 167
e 25 179
e 25 186
e 25 187
e 25 196
e 26 27
e 26 28
e 26 29
e 26 32
e 26 33
e 26 36
e 26 40
e 26 41
e 26 42
e 26 43
e 26 45
e 26 47
e 26 49
e 26 50
e 26 51
e 26 52
e 26 53
e 26 56
e 26 58
e 26 59
e 26 61
e 26 64
e 26 65
e 26 66
e 26 69
e 26 70
e 26 71
e 26 74
e 26 75
e 26 81
e 26 82
e 26 83
e 26 86
e 26 92
e 26 93
e 26 101
e 26 103
e 26 104
e 26 105
e 26 106
e 26 107
e 26 110
e 26 111
e 26 125
e 26 129
e 26 132
e 26 134
e 26 144
e 26 145
e 26 150
e 26 157
e 26 167
e 26 178
e 26 181
e 26 184
e 26 187
e 26 197
e 26 198
e 26 199
e 26 200
e 27 28
e 27 29
e 27 30
e 27 33
e 27 35
e 27 38
e 27 40
e 27 41
e 27 42
e 27 45
e 27 46
e 27 48
e 27 49
e 27 50
e 27 52
e 27 54
e 27 55
e 27 57
e 27 63
e 27 64
e 27 66
e 27 71
e 27 78
e 27 82
e 27 84
e 27 87
e 27 99
e 27 104
e 27 110
e 27 113
e 27 114
e 27 118
e 27 121
e 27 128
e 27 151
e 27 159
e 27 165
e 27 169
e 27 175
e 27 182
e 27 188
e 27 194
e 27 201
e 28 29
e 28 31
e 28 32
e 28 33
e 28 35
e 28 36
e 28 40
e 28 45
e 28 46
e 28 47
e 28 48
e 28 49
e 28 52
e 28 55
e 28 57
e 28 60
e 28 65
e 28 66
e 28 68
e 28 71
e 28 73
e 28 81
e 28 82
e 28 84
e 28 87
e 28 88
e 28 91
e 28 95
e 28 97
e 28 98
e 28 108
e 28 109
e 28 111
e 28 112
e 28 114
e 28 119
e 28 132
e 28 135
e 28 137
e 28 138
e 28 145
e 28 155
e 28 159
e 28 160
e 28 162
e 28 163
e 28 164
e 28 165
e 28 171
e 28 173
e 28 185
e 28 187
e 28 196
e 28 197
e 28 200
e 29 30
e 29 31
e 29 32
e 29 33
e 29 34
e 29 36
e 29 37
e 29 38
e 29 40
e 29 46
e 29 48
e 29 50
e 29 51
e 29 54
e 29 56
e 29 59
e 29 62
e 29 68
e 29 73
e 29 79
e 29 80
e 29 82
e 29 83
e 29 84
e 29 88
e 29 91
e 29 97
e 29 101
e 29 102
e 29 104
e 29 106
e 29 107
e 29 114
e 29 116
e 29 122
e 29 142
e 29 143
e 29 144
e 29 145
e 29 148
e 29 150
e 29 153
e 29 156
e 29 157
e 29 158
e 29 165
e 29 184
e 29 193
e 29 198
e 30 31
e 30 33
e 30 35
e 30 37
e 30 38
e 30 39
e 30 40
e 30 41
e 30 43
e 30 45
e 30 47
e 30 48
e 30 52
e 30 58
e 30 59
e 30 60
e 30 69
e 30 71
e 30 78
e 30 81
e 30 93
e 30 102
e 30 106
e 30 107
e 30 114
e 30 124
e 30 130
e 30 131
e 30 132
e 30 134
e 30 135
e 30 136
e 30 144
e 30 147
e 30 158
e 30 161
e 30 162
e 30 180
e 30 182
e 30 183
e 30 198
e 31 32
e 31 34
e 31 35
e 31 41
e 31 44
e 31 45
e 31 53
e 31 58
e 31 59
e 31 60
e 31 66
e 31 74
e 31 75
e 31 85
e 31 87
e 31 91
e 31 94
e 31 100
e 31 103
e 31 115
e 31 122
e 31 135
e 31 136
e 31 137
e 31 138
e 31 147
e 31 156
e 31 158
e 31 160
e 31 166
e 31 171
e 31 172
e 31 173
e 31 179
e 31 191
e 31 194
e 31 195
e 31 201
e 32 33
e 32 34
e 32 36
e 32 41
e 32 43
e 32 46
e 32 50
e 32 53
e 32 63
e 32 79
e 32 87
e 32 108
e 32 109
e 32 117
e 32 118
e 32 127
e 32 128
e 32 134
e 32 137
e 32 149
e 32 182
e 32 199
e 33 34
e 33 35
e 33 36
e 33 37
e 33 40
e 33 43
e 33 53
e 33 54
e 33 58
e 33 59
e 33 62
e 33 66
e 33 69
e 33 72
e 33 77
e 33 95
e 33 104
e 33 107
e 33 112
e 33 113
e 33 126
e 33 136
e 33 137
e 33 141
e 33 148
e 33 152
e 33 154
e 33 164
e 33 167
e 33 170
e 33 171
e 33 172
e 33 176
e 33 177
e 33 178
e 33 181
e 33 185
e 33 195
e 34 40
e 34 41
e 34 42
e 34 43
e 34 44
e 34 45
e 34 55
e 34 56
e 34 60
e 34 61
e 34 62
e 34 63
e 34 65
e 34 67
e 34 68
e 34 70
e 34 72
e 34 73
e 34 77
e 34 79
e 34 80
e 34 90
e 34 96
e 34 97
e 34 109
e 34 110
e 34 115
e 34 119
e 34 134
e 34 135
e 34 138
e 34 139
e 34 140
e 34 149
e 34 151
e 34 158
e 34 163
e 34 165
e 34 166
e 34 170
e 34 171
e 34 174
e 34 179
e 34 180
e 34 183
e 34 184
e 34 187
e 35 36
e 35 37
e 35 38
e 35 39
e 35 42
e 35 43
e 35 44
e 35 48
e 35 50
e 35 54
e 35 61
e 35 62
e 35 65
e 35 66
e 35 73
e 35 78
e 35 85
e 35 89
e 35 91
e 35 92
e 35 101
e 35 103
e 35 108
e 35 115
e 35 120
e 35 123
e 35 133
e 35 136
e 35 138
e 35 140
e 35 144
e 35 150
e 35 152
e 35 162
e 35 163
e 35 175
e 35 192
e 35 194
e 35 201
e 36 37
e 36 43
e 36 48
e 36 49
e 36 52
e 36 64
e 36 66
e 36 68
e 36 69
e 36 81
e 36 83
e 36 92
e 36 95
e 36 97
e 36 100
e 36 105
e 36 108
e 36 112
e 36 118
e 36 119
e 36 121
e 36 131
e 36 135
e 36 147
e 36 152
e 36 155
e 36 164
e 36 173
e 36 180
e 36 182
e 36 190
e 36 200
e 37 38
e 37 40
e 37 42
e 37 45
e 37 48
e 37 50
e 37 51
e 37 65
e 37 66
e 37 68
e 37 70
e 37 71
e 37 94
e 37 96
e 37 98
e 37 101
e 37 108
e 37 110
e 37 116
e 37 125
e 37 132
e 37 139
e 37 149
e 37 155
e 37 164
e 37 178
e 37 181
e 37 189
e 37 193
e 38 39
e 38 43
e 38 44
e 38 45
e 38 47
e 38 49
e 38 51
e 38 52
e 38 56
e 38 57
e 38 59
e 38 67
e 38 69
e 38 79
e 38 80
e 38 82
e 38 100
e 38 109
e 38 111
e 38 120
e 38 122
e 38 127
e 38 128
e 38 133
e 38 134
e 38 150
e 38 151
e 38 159
e 38 161
e 38 162
e 38 165
e 38 168
e 38 169
e 38 171
e 38 174
e 38 199
e 39 46
e 39 49
e 39 52
e 39 55
e 39 56
e 39 57
e 39 66
e 39 67
e 39 68
e 39 69
e 39 70
e 39 72
e 39 87
e 39 88
e 39 89
e 39 90
e 39 91
e 39 94
e 39 95
e 39 105
e 39 112
e 39 123
e 39 124
e 39 128
e 39 130
e 39 137
e 39 139
e 39 140
e 39 166
e 39 167
e 39 178
e 39 185
e 39 186
e 39 194
e 39 196
e 40 41
e 40 42
e 40 45
e 40 46
e 40 49
e 40 53
e 40 58
e 40 60
e 40 62
e 40 71
e 40 80
e 40 85
e 40 87
e 40 88
e 40 96
e 40 101
e 40 103
e 40 117
e 40 125
e 40 126
e 40 131
e 40 156
e 40 160
e 40 169
e 40 172
e 40 176
e 40 191
e 41 42
e 41 43
e 41 44
e 41 45
e 41 47
e 41 48
e 41 49
e 41 50
e 41 51
e 41 54
e 41 55
e 41 57
e 41 58
e 41 61
e 41 73
e 41 79
e 41 80
e 41 88
e 41 90
e 41 91
e 41 93
e 41 99
e 41 101
e 41 106
e 41 111
e 41 117
e 41 119
e 41 129
e 41 142
e 41 143
e 41 148
e 41 153
e 41 185
e 41 188
e 41 194
e 42 46
e 42 47
e 42 49
e 42 57
e 42 72
e 42 74
e 42 77
e 42 84
e 42 99
e 42 101
e 42 102
e 42 111
e 42 121
e 42 122
e 42 140
e 42 145
e 42 159
e 42 164
e 42 168
e 42 174
e 42 188
e 42 198
e 43 46
e 43 49
e 43 51
e 43 55
e 43 61
e 43 63
e 43 68
e 43 71
e 43 72
e 43 74
e 43 86
e 43 89
e 43 93
e 43 97
e 43 104
e 43 105
e 43 113
e 43 128
e 43 129
e 43 133
e 43 134
e 43 149
e 43 151
e 43 162
e 43 173
e 43 176
e 43 189
e 44 46
e 44 53
e 44 60
e 44 61
e 44 69
e 44 71
e 44 86
e 44 100
e 44 109
e 44 115
e 44 120
e 44 128
e 44 134
e 44 149
e 44 168
e 44 182
e 44 187
e 44 193
e 44 199
e 45 47
e 45 57
e 45 60
e 45 67
e 45 69
e 45 81
e 45 84
e 45 87
e 45 88
e 45 90
e 45 97
e 45 101
e 45 103
e 45 106
e 45 108
e 45 110
e 45 112
e 45 125
e 45 128
e 45 129
e 45 133
e 45 135
e 45 137
e 45 145
e 45 146
e 45 153
e 45 156
e 45 166
e 45 178
e 45 184
e 45 189
e 45 190
e 45 193
e 46 47
e 46 51
e 46 60
e 46 64
e 46 73
e 46 77
e 46 79
e 46 80
e 46 90
e 46 98
e 46 99
e 46 109
e 46 113
e 46 127
e 46 137
e 46 143
e 46 148
e 46 158
e 46 162
e 46 163
e 46 180
e 46 187
e 46 192
e 46 200
e 47 50
e 47 58
e 47 59
e 47 62
e 47 64
e 47 70
e 47 72
e 47 76
e 47 77
e 47 81
e 47 95
e 47 105
e 47 106
e 47 116
e 47 117
e 47 120
e 47 122
e 47 141
e 47 144
e 47 146
e 47 165
e 47 170
e 47 172
e 47 175
e 47 177
e 47 178
e 47 190
e 47 201
e 48 51
e 48 55
e 48 57
e 48 61
e 48 63
e 48 67
e 48 79
e 48 80
e 48 97
e 48 100
e 48 108
e 48 126
e 48 141
e 48 153
e 48 161
e 48 162
e 48 181
e 48 183
e 48 185
e 48 189
e 48 190
e 48 193
e 48 195
e 48 200
e 49 53
e 49 56
e 49 60
e 49 64
e 49 65
e 49 74
e 49 75
e 49 76
e 49 80
e 49 82
e 49 88
e 49 92
e 49 94
e 49 100
e 49 109
e 49 111
e 49 112
e 49 119
e 49 128
e 49 131
e 49 145
e 49 146
e 49 147
e 49 148
e 49 163
e 49 183
e 49 190
e 49 196
e 50 51
e 50 54
e 50 58
e 50 63
e 50 66
e 50 67
e 50 68
e 50 77
e 50 78
e 50 90
e 50 91
e 50 101
e 50 104
e 50 106
e 50 121
e 50 122
e 50 130
e 50 164
e 50 165
e 50 173
e 50 177
e 51 54
e 51 68
e 51 76
e 51 81
e 51 86
e 51 93
e 51 95
e 51 96
e 51 105
e 51 107
e 51 108
e 51 110
e 51 113
e 51 127
e 51 138
e 51 139
e 51 142
e 51 144
e 51 167
e 51 182
e 51 185
e 51 191
e 51 199
e 52 54
e 52 69
e 52 76
e 52 80
e 52 81
e 52 85
e 52 92
e 52 98
e 52 99
e 52 102
e 52 104
e 52 109
e 52 110
e 52 117
e 52 128
e 52 129
e 52 145
e 52 147
e 52 148
e 52 152
e 52 154
e 52 169
e 52 172
e 52 190
e 53 54
e 53 55
e 53 58
e 53 64
e 53 65
e 53 68
e 53 81
e 53 91
e 53 120
e 53 121
e 53 125
e 53 129
e 53 137
e 53 150
e 53 161
e 53 168
e 53 169
e 53 175
e 53 177
e 53 181
e 53 184
e 53 190
e 53 192
e 54 58
e 54 62
e 54 73
e 54 79
e 54 82
e 54 86
e 54 103
e 54 105
e 54 112
e 54 117
e 54 119
e 54 124
e 54 130
e 54 151
e 54 155
e 54 163
e 54 174
e 54 185
e 54 186
e 54 201
e 55 56
e 55 63
e 55 66
e 55 75
e 55 78
e 55 81
e 55 90
e 55 104
e 55 123
e 55 137
e 55 142
e 55 154
e 55 159
e 55 161
e 55 184
e 56 57
e 56 59
e 56 63
e 56 64
e 56 71
e 56 79
e 56 86
e 56 114
e 56 127
e 56 157
e 56 158
e 56 184
e 56 187
e 57 61
e 57 66
e 57 67
e 57 70
e 57 71
e 57 74
e 57 80
e 57 85
e 57 86
e 57 102
e 57 103
e 57 105
e 57 123
e 57 125
e 57 145
e 57 147
e 57 149
e 57 173
e 57 181
e 57 185
e 58 59
e 58 68
e 58 70
e 58 74
e 58 75
e 58 76
e 58 84
e 58 86
e 58 98
e 58 99
e 58 120
e 58 124
e 58 126
e 58 127
e 58 133
e 58 149
e 58 152
e 58 157
e 58 159
e 58 163
e 58 169
e 58 171
e 58 181
e 58 196
e 59 66
e 59 67
e 59 80
e 59 85
e 59 86
e 59 104
e 59 106
e 59 112
e 59 113
e 59 130
e 59 133
e 59 151
e 59 154
e 59 174
e 59 175
e 59 192
e 60 72
e 60 78
e 60 86
e 60 105
e 60 116
e 60 117
e 60 120
e 60 123
e 60 132
e 60 143
e 60 169
e 60 172
e 61 62
e 61 67
e 61 68
e 61 75
e 61 89
e 61 99
e 61 104
e 61 115
e 61 123
e 61 142
e 61 154
e 61 173
e 61 178
e 61 190
e 61 200
e 62 64
e 62 76
e 62 78
e 62 111
e 62 118
e 62 124
e 62 132
e 62 150
e 62 157
e 62 194
e 63 70
e 63 83
e 63 90
e 63 97
e 63 102
e 63 104
e 63 107
e 63 119
e 63 121
e 63 148
e 63 150
e 63 153
e 63 170
e 63 181
e 63 188
e 63 195
e 64 70
e 64 74
e 64 79
e 64 85
e 64 120
e 64 125
e 64 129
e 64 133
e 64 181
e 64 192
e 65 67
e 65 77
e 65 85
e 65 94
e 65 96
e 65 97
e 65 102
e 65 115
e 65 116
e 65 123
e 65 124
e 65 126
e 65 127
e 65 139
e 65 151
e 65 157
e 65 174
e 65 194
e 66 73
e 66 74
e 66 78
e 66 91
e 66 92
e 66 93
e 66 94
e 66 99
e 66 105
e 66 107
e 66 112
e 66 113
e 66 115
e 66 123
e 66 165
e 66 175
e 66 176
e 67 76
e 67 87
e 67 88
e 67 97
e 67 105
e 67 109
e 67 114
e 67 122
e 67 130
e 67 131
e 67 133
e 67 135
e 67 154
e 67 157
e 67 182
e 67 186
e 67 193
e 68 89
e 68 92
e 68 95
e 68 97
e 68 104
e 68 122
e 68 130
e 68 140
e 68 143
e 68 144
e 68 146
e 68 153
e 68 156
e 68 159
e 69 70
e 69 72
e 69 80
e 69 81
e 69 90
e 69 92
e 69 94
e 69 95
e 69 100
e 69 102
e 69 106
e 69 110
e 69 118
e 69 123
e 69 136
e 69 144
e 69 164
e 69 171
e 69 174
e 69 178
e 69 179
e 69 191
e 69 193
e 69 199
e 69 200
e 70 75
e 70 76
e 70 82
e 70 86
e 70 98
e 70 100
e 70 115
e 70 122
e 70 130
e 70 139
e 70 143
e 70 148
e 70 170
e 70 176
e 70 200
e 71 82
e 71 92
e 71 98
e 71 121
e 71 139
e 71 153
e 71 162
e 71 164
e 71 174
e 71 177
e 71 180
e 71 189
e 72 84
e 72 91
e 72 119
e 72 126
e 72 151
e 72 164
e 72 169
e 72 170
e 72 188
e 72 193
e 73 82
e 73 85
e 73 88
e 73 94
e 73 96
e 73 104
e 73 105
e 73 107
e 73 111
e 73 123
e 73 129
e 73 132
e 73 135
e 73 139
e 73 142
e 73 146
e 73 153
e 73 160
e 73 166
e 73 188
e 73 196
e 74 75
e 74 79
e 74 85
e 74 92
e 74 93
e 74 109
e 74 110
e 74 111
e 74 117
e 74 120
e 74 122
e 74 131
e 74 135
e 74 150
e 74 151
e 74 153
e 74 176
e 75 81
e 75 82
e 75 105
e 75 110
e 75 113
e 75 114
e 75 119
e 75 124
e 75 127
e 75 133
e 75 153
e 75 165
e 75 168
e 75 195
e 76 78
e 76 80
e 76 87
e 76 93
e 76 96
e 76 99
e 76 104
e 76 106
e 76 109
e 76 118
e 76 119
e 76 127
e 76 134
e 76 154
e 76 189
e 76 190
e 76 195
e 77 84
e 77 87
e 77 89
e 77 90
e 77 101
e 77 121
e 77 126
e 77 132
e 77 138
e 77 141
e 77 143
e 77 147
e 77 151
e 77 166
e 77 172
e 77 177
e 77 189
e 77 194
e 77 199
e 78 87
e 78 90
e 78 102
e 78 123
e 78 127
e 78 134
e 78 139
e 78 140
e 78 141
e 78 148
e 78 157
e 78 160
e 78 163
e 78 169
e 78 172
e 78 182
e 79 113
e 79 129
e 79 132
e 79 135
e 79 144
e 79 154
e 79 192
e 79 195
e 80 101
e 80 102
e 80 108
e 80 119
e 80 133
e 80 141
e 80 155
e 80 161
e 80 172
e 80 173
e 80 180
e 80 191
e 80 196
e 81 82
e 81 83
e 81 86
e 81 94
e 81 127
e 82 86
e 82 87
e 82 103
e 82 115
e 82 129
e 82 130
e 82 132
e 82 158
e 82 187
e 82 191
e 82 201
e 83 91
e 83 110
e 83 113
e 83 114
e 83 115
e 83 123
e 83 149
e 83 173
e 83 176
e 83 189
e 84 96
e 84 105
e 84 116
e 84 138
e 84 142
e 84 149
e 84 177
e 84 184
e 85 89
e 85 93
e 85 94
e 85 131
e 85 132
e 85 144
e 85 146
e 85 165
e 86 87
e 86 88
e 86 132
e 86 134
e 86 135
e 86 140
e 86 143
e 86 146
e 86 150
e 86 166
e 86 167
e 86 190
e 87 91
e 87 97
e 87 143
e 87 159
e 87 167
e 87 180
e 88 98
e 88 100
e 88 116
e 88 128
e 88 131
e 88 139
e 88 142
e 88 153
e 88 173
e 88 175
e 88 186
e 89 100
e 89 117
e 89 126
e 89 132
e 89 135
e 89 175
e 89 177
e 89 178
e 90 99
e 90 102
e 90 121
e 90 138
e 90 158
e 90 161
e 90 167
e 90 176
e 90 192
e 91 94
e 91 95
e 91 98
e 91 109
e 91 128
e 91 138
e 91 143
e 91 153
e 91 158
e 91 164
e 91 180
e 91 187
e 91 193
e 91 195
e 91 196
e 91 198
e 92 115
e 92 116
e 92 121
e 92 152
e 92 157
e 92 165
e 92 168
e 92 171
e 92 173
e 92 181
e 92 182
e 92 193
e 93 114
e 93 196
e 94 112
e 94 122
e 94 138
e 94 163
e 94 169
e 94 174
e 94 177
e 94 180
e 95 103
e 95 124
e 95 136
e 95 145
e 95 152
e 95 155
e 95 168
e 96 107
e 96 116
e 96 117
e 96 161
e 96 165
e 96 179
e 96 192
e 97 99
e 97 100
e 97 114
e 97 116
e 97 129
e 97 130
e 97 131
e 97 136
e 97 144
e 97 158
e 97 159
e 97 174
e 97 179
e 97 185
e 97 190
e 98 122
e 98 125
e 98 130
e 98 140
e 98 178
e 98 180
e 98 195
e 98 201
e 99 102
e 99 111
e 99 112
e 99 116
e 99 117
e 99 120
e 99 124
e 99 145
e 99 157
e 99 163
e 100 101
e 100 131
e 100 149
e 100 155
e 100 156
e 100 165
e 100 178
e 100 179
e 100 192
e 101 103
e 101 108
e 101 119
e 101 138
e 101 139
e 101 145
e 101 152
e 101 160
e 101 166
e 101 172
e 102 104
e 102 111
e 102 125
e 102 146
e 102 166
e 102 172
e 102 173
e 103 136
e 103 146
e 103 190
e 104 116
e 104 128
e 104 144
e 104 168
e 104 171
e 104 201
e 105 118
e 105 130
e 105 137
e 105 147
e 105 153
e 105 172
e 105 180
e 105 182
e 105 183
e 105 184
e 105 201
e 106 113
e 106 121
e 106 134
e 106 184
e 106 189
e 106 194
e 107 126
e 107 127
e 107 129
e 107 139
e 107 140
e 107 170
e 107 191
e 107 197
e 108 146
e 108 147
e 108 191
e 108 198
e 109 114
e 109 146
e 109 188
e 110 112
e 110 118
e 110 142
e 110 167
e 110 200
e 110 201
e 111 125
e 111 140
e 111 150
e 111 151
e 111 197
e 112 121
e 112 126
e 112 137
e 112 142
e 112 144
e 112 154
e 112 167
e 112 168
e 112 174
e 113 115
e 113 120
e 113 134
e 113 160
e 113 179
e 113 188
e 113 190
e 113 199
e 114 164
e 114 181
e 114 186
e 114 191
e 114 200
e 115 124
e 115 129
e 115 131
e 115 162
e 115 171
e 115 186
e 116 120
e 116 129
e 116 144
e 116 161
e 116 178
e 117 120
e 117 166
e 117 182
e 118 124
e 118 157
e 118 186
e 119 123
e 119 136
e 119 147
e 119 149
e 119 157
e 119 168
e 119 177
e 119 180
e 120 159
e 120 164
e 120 180
e 120 198
e 121 122
e 121 141
e 121 186
e 121 187
e 122 134
e 123 155
e 123 193
e 124 155
e 124 166
e 124 185
e 124 195
e 125 132
e 125 133
e 125 142
e 125 146
e 125 152
e 125 154
e 125 164
e 125 178
e 125 190
e 126 158
e 126 160
e 126 162
e 126 167
e 127 145
e 127 167
e 127 176
e 127 191
e 127 194
e 127 198
e 127 201
e 129 165
e 129 172
e 129 175
e 129 184
e 130 155
e 130 176
e 131 171
e 131 184
e 131 186
e 131 192
e 131 198
e 132 137
e 132 175
e 132 197
e 133 151
e 133 182
e 133 191
e 134 137
e 134 200
e 135 167
e 135 184
e 135 197
e 136 138
e 136 197
e 137 138
e 137 139
e 137 147
e 137 167
e 138 143
e 138 159
e 138 163
e 138 171
e 138 198
e 138 199
e 139 141
e 139 144
e 139 154
e 139 183
e 139 185
e 139 196
e 139 199
e 140 148
e 140 149
e 140 150
e 140 161
e 140 179
e 140 181
e 140 183
e 140 191
e 140 195
e 140 196
e 141 143
e 141 162
e 142 150
e 142 166
e 142 177
e 142 184
e 143 147
e 143 175
e 143 183
e 144 183
e 144 187
e 144 192
e 144 193
e 145 168
e 145 197
e 145 199
e 145 200
e 146 154
e 146 173
e 146 191
e 147 153
e 147 188
e 148 175
e 148 180
e 148 189
e 149 169
e 149 189
e 149 197
e 151 152
e 151 163
e 151 169
e 151 198
e 152 166
e 152 176
e 153 196
e 154 193
e 154 201
e 155 172
e 155 176
e 156 169
e 156 177
e 156 196
e 156 197
e 158 182
e 159 170
e 159 190
e 160 162
e 161 162
e 161 183
e 161 198
e 161 199
e 162 163
e 162 179
e 163 170
e 163 178
e 163 181
e 164 173
e 164 191
e 164 194
e 165 169
e 165 170
e 165 175
e 165 201
e 166 171
e 166 174
e 166 186
e 166 191
e 167 171
e 168 194
e 169 170
e 169 185
e 170 188
e 171 183
e 171 191
e 171 195
e 174 189
e 178 180
e 178 185
e 180 189
e 181 190
e 182 200
e 183 192
e 184 199
e 185 196
e 185 197
e 189 192
e 191 196
e 191 197
e 192 194
